
DIMENSION:  10

EDGE_WEIGHT_SECTION
 9999   10     10    10   10   10   10   10	  10   10	 
   10   9999   10    10   10   10   10   10   10   10  
   10  10      9999  10   10   10   10   10   10   10   
   10   10   10 9999    10    10    10   10   10   10  
   10   10   10    10 9999    10    10   10   10   10  
    10    10   10    10    10 9999    10    10    10    10    
    10    10   10    10    10    10 9999    10    10    10  
    10    10   10   10   10    10    10 9999    10    10   
    10    10   10   10   10    10    10    10 9999    10   
    10    10    10   10   10    10    10    10    10 9999   

EOF
